Mg64Si32O128
1.0
        9.0000000000         0.0000000000         0.0000000000
        0.0000000000         9.0000000000         0.0000000000
        0.0000000000         0.0000000000         9.2000000000
Mg Si O
64 32 128
Direct
0.312500000 0.125000000 0.062500000 Mg
0.812500000 0.125000000 0.062500000 Mg
0.312500000 0.625000000 0.062500000 Mg
0.812500000 0.625000000 0.062500000 Mg
0.312500000 0.125000000 0.562500000 Mg
0.312500000 0.625000000 0.562500000 Mg
0.812500000 0.625000000 0.562500000 Mg
0.187500000 0.375000000 0.062500000 Mg
0.687500000 0.375000000 0.062500000 Mg
0.187500000 0.875000000 0.062500000 Mg
0.687500000 0.875000000 0.062500000 Mg
0.187500000 0.375000000 0.562500000 Mg
0.187500000 0.875000000 0.562500000 Mg
0.687500000 0.875000000 0.562500000 Mg
0.125000000 0.187500000 0.437500000 Mg
0.125000000 0.687500000 0.437500000 Mg
0.125000000 0.187500000 0.937500000 Mg
0.625000000 0.187500000 0.937500000 Mg
0.625000000 0.687500000 0.937500000 Mg
0.375000000 0.312500000 0.437500000 Mg
0.875000000 0.312500000 0.437500000 Mg
0.375000000 0.812500000 0.437500000 Mg
0.875000000 0.812500000 0.437500000 Mg
0.375000000 0.812500000 0.937500000 Mg
0.437500000 0.125000000 0.312500000 Mg
0.937500000 0.125000000 0.312500000 Mg
0.437500000 0.625000000 0.312500000 Mg
0.437500000 0.125000000 0.812500000 Mg
0.937500000 0.125000000 0.812500000 Mg
0.437500000 0.625000000 0.812500000 Mg
0.937500000 0.625000000 0.812500000 Mg
0.562500000 0.375000000 0.312500000 Mg
0.062500000 0.875000000 0.312500000 Mg
0.062500000 0.375000000 0.812500000 Mg
0.062500000 0.875000000 0.812500000 Mg
0.562500000 0.875000000 0.812500000 Mg
0.875000000 0.437500000 0.187500000 Mg
0.375000000 0.437500000 0.187500000 Mg
0.875000000 0.937500000 0.187500000 Mg
0.875000000 0.437500000 0.687500000 Mg
0.875000000 0.937500000 0.687500000 Mg
0.375000000 0.937500000 0.687500000 Mg
0.125000000 0.062500000 0.187500000 Mg
0.625000000 0.562500000 0.187500000 Mg
0.125000000 0.562500000 0.187500000 Mg
0.125000000 0.062500000 0.687500000 Mg
0.625000000 0.562500000 0.687500000 Mg
0.125000000 0.562500000 0.687500000 Mg
1.000000000 1.000000000 1.000000000 Mg
0.500000000 1.000000000 1.000000000 Mg
1.000000000 1.000000000 0.500000000 Mg
0.500000000 1.000000000 0.500000000 Mg
0.500000000 0.500000000 0.500000000 Mg
0.250000000 1.000000000 0.375000000 Mg
0.750000000 1.000000000 0.875000000 Mg
0.250000000 0.500000000 0.875000000 Mg
0.750000000 0.750000000 0.250000000 Mg
0.250000000 0.250000000 0.750000000 Mg
0.500000000 0.750000000 0.125000000 Mg
1.000000000 0.250000000 0.125000000 Mg
0.500000000 0.750000000 0.625000000 Mg
1.000000000 0.750000000 0.625000000 Mg
0.500000000 0.250000000 0.625000000 Mg
1.000000000 0.250000000 0.625000000 Mg
0.812500000 0.125000000 0.562500000 Si
0.687500000 0.375000000 0.562500000 Si
0.625000000 0.187500000 0.437500000 Si
0.625000000 0.687500000 0.437500000 Si
0.125000000 0.687500000 0.937500000 Si
0.375000000 0.312500000 0.937500000 Si
0.875000000 0.312500000 0.937500000 Si
0.875000000 0.812500000 0.937500000 Si
0.937500000 0.625000000 0.312500000 Si
0.062500000 0.375000000 0.312500000 Si
0.562500000 0.875000000 0.312500000 Si
0.562500000 0.375000000 0.812500000 Si
0.375000000 0.937500000 0.187500000 Si
0.375000000 0.437500000 0.687500000 Si
0.625000000 0.062500000 0.187500000 Si
0.625000000 0.062500000 0.687500000 Si
1.000000000 0.500000000 1.000000000 Si
0.500000000 0.500000000 1.000000000 Si
1.000000000 0.500000000 0.500000000 Si
0.750000000 1.000000000 0.375000000 Si
0.750000000 0.500000000 0.375000000 Si
0.250000000 0.500000000 0.375000000 Si
0.250000000 1.000000000 0.875000000 Si
0.750000000 0.500000000 0.875000000 Si
0.250000000 0.750000000 0.250000000 Si
0.750000000 0.250000000 0.250000000 Si
0.250000000 0.250000000 0.250000000 Si
0.750000000 0.750000000 0.750000000 Si
0.250000000 0.750000000 0.750000000 Si
0.750000000 0.250000000 0.750000000 Si
1.000000000 0.750000000 0.125000000 Si
0.500000000 0.250000000 0.125000000 Si
0.342680000 0.467680000 0.030180000 O
0.842680000 0.467680000 0.030180000 O
0.342680000 0.967680000 0.030180000 O
0.842680000 0.967680000 0.030180000 O
0.342680000 0.467680000 0.530180000 O
0.842680000 0.467680000 0.530180000 O
0.342680000 0.967680000 0.530180000 O
0.842680000 0.967680000 0.530180000 O
0.157320000 0.032320000 0.030180000 O
0.657320000 0.032320000 0.030180000 O
0.157320000 0.532320000 0.030180000 O
0.657320000 0.532320000 0.030180000 O
0.157320000 0.032320000 0.530180000 O
0.657320000 0.032320000 0.530180000 O
0.157320000 0.532320000 0.530180000 O
0.657320000 0.532320000 0.530180000 O
0.467680000 0.157320000 0.469820000 O
0.967680000 0.157320000 0.469820000 O
0.467680000 0.657320000 0.469820000 O
0.967680000 0.657320000 0.469820000 O
0.467680000 0.157320000 0.969820000 O
0.967680000 0.157320000 0.969820000 O
0.467680000 0.657320000 0.969820000 O
0.967680000 0.657320000 0.969820000 O
0.032320000 0.342680000 0.469820000 O
0.532320000 0.342680000 0.469820000 O
0.032320000 0.842680000 0.469820000 O
0.532320000 0.842680000 0.469820000 O
0.032320000 0.342680000 0.969820000 O
0.532320000 0.342680000 0.969820000 O
0.032320000 0.842680000 0.969820000 O
0.532320000 0.842680000 0.969820000 O
0.407320000 0.467680000 0.344820000 O
0.907320000 0.467680000 0.344820000 O
0.407320000 0.967680000 0.344820000 O
0.907320000 0.967680000 0.344820000 O
0.407320000 0.467680000 0.844820000 O
0.907320000 0.467680000 0.844820000 O
0.407320000 0.967680000 0.844820000 O
0.907320000 0.967680000 0.844820000 O
0.092680000 0.032320000 0.344820000 O
0.592680000 0.032320000 0.344820000 O
0.092680000 0.532320000 0.344820000 O
0.592680000 0.532320000 0.344820000 O
0.092680000 0.032320000 0.844820000 O
0.592680000 0.032320000 0.844820000 O
0.092680000 0.532320000 0.844820000 O
0.592680000 0.532320000 0.844820000 O
0.282320000 0.157320000 0.405180000 O
0.782320000 0.157320000 0.405180000 O
0.282320000 0.657320000 0.405180000 O
0.782320000 0.657320000 0.405180000 O
0.282320000 0.157320000 0.905180000 O
0.782320000 0.157320000 0.905180000 O
0.282320000 0.657320000 0.905180000 O
0.782320000 0.657320000 0.905180000 O
0.217680000 0.342680000 0.405180000 O
0.717680000 0.342680000 0.405180000 O
0.217680000 0.842680000 0.405180000 O
0.717680000 0.842680000 0.405180000 O
0.217680000 0.342680000 0.905180000 O
0.717680000 0.342680000 0.905180000 O
0.217680000 0.842680000 0.905180000 O
0.717680000 0.842680000 0.905180000 O
0.092680000 0.217680000 0.280180000 O
0.592680000 0.217680000 0.280180000 O
0.092680000 0.717680000 0.280180000 O
0.592680000 0.717680000 0.280180000 O
0.092680000 0.217680000 0.780180000 O
0.592680000 0.217680000 0.780180000 O
0.092680000 0.717680000 0.780180000 O
0.592680000 0.717680000 0.780180000 O
0.407320000 0.282320000 0.280180000 O
0.907320000 0.282320000 0.280180000 O
0.407320000 0.782320000 0.280180000 O
0.907320000 0.782320000 0.280180000 O
0.407320000 0.282320000 0.780180000 O
0.907320000 0.282320000 0.780180000 O
0.407320000 0.782320000 0.780180000 O
0.907320000 0.782320000 0.780180000 O
0.217680000 0.407320000 0.219820000 O
0.717680000 0.407320000 0.219820000 O
0.217680000 0.907320000 0.219820000 O
0.717680000 0.907320000 0.219820000 O
0.217680000 0.407320000 0.719820000 O
0.717680000 0.407320000 0.719820000 O
0.217680000 0.907320000 0.719820000 O
0.717680000 0.907320000 0.719820000 O
0.282320000 0.092680000 0.219820000 O
0.782320000 0.092680000 0.219820000 O
0.282320000 0.592680000 0.219820000 O
0.782320000 0.592680000 0.219820000 O
0.282320000 0.092680000 0.719820000 O
0.782320000 0.092680000 0.719820000 O
0.282320000 0.592680000 0.719820000 O
0.782320000 0.592680000 0.719820000 O
0.157320000 0.217680000 0.094820000 O
0.657320000 0.217680000 0.094820000 O
0.157320000 0.717680000 0.094820000 O
0.657320000 0.717680000 0.094820000 O
0.157320000 0.217680000 0.594820000 O
0.657320000 0.217680000 0.594820000 O
0.157320000 0.717680000 0.594820000 O
0.657320000 0.717680000 0.594820000 O
0.342680000 0.282320000 0.094820000 O
0.842680000 0.282320000 0.094820000 O
0.342680000 0.782320000 0.094820000 O
0.842680000 0.782320000 0.094820000 O
0.342680000 0.282320000 0.594820000 O
0.842680000 0.282320000 0.594820000 O
0.342680000 0.782320000 0.594820000 O
0.842680000 0.782320000 0.594820000 O
0.032320000 0.407320000 0.155180000 O
0.532320000 0.407320000 0.155180000 O
0.032320000 0.907320000 0.155180000 O
0.532320000 0.907320000 0.155180000 O
0.032320000 0.407320000 0.655180000 O
0.532320000 0.407320000 0.655180000 O
0.032320000 0.907320000 0.655180000 O
0.532320000 0.907320000 0.655180000 O
0.467680000 0.092680000 0.155180000 O
0.967680000 0.092680000 0.155180000 O
0.467680000 0.592680000 0.155180000 O
0.967680000 0.592680000 0.155180000 O
0.467680000 0.092680000 0.655180000 O
0.967680000 0.092680000 0.655180000 O
0.467680000 0.592680000 0.655180000 O
0.967680000 0.592680000 0.655180000 O
