Mg64 Si32 O128 
1.0
8.9569557040027998e+00 1.3114667783358986e-21 2.4339601514836238e-22 
-5.7249985814804245e-06 8.9569592190016429e+00 7.6596628345552067e-22 
-4.2602513280974564e-06 -8.0662391038455371e-06 9.1639967419954598e+00 
Mg Si O 
64 32 128 
Cartesian
   2.3286190288    1.3094312341    0.2888622351
   1.3905776690    3.4499006503    0.2709936831
   0.6734971703    1.7017171321    3.7472118110
   2.9853662190    3.0310184173    3.9658840558
   3.5743078048    1.3620397765    2.8493628605
   8.8909266352    3.3724033933    2.6010971017
   3.1080866629    4.0419305598    1.6210150027
   0.8005189457    0.6197692654    1.4158309177
   6.8160191073    1.1768340905    0.3023442046
   5.7603275458    3.5805533681    0.3563758296
   5.2005870668    1.9362201136    3.6473441220
   7.4776765248    2.7876515733    3.6425459300
   8.1055479839    1.2861829201    2.5683849003
   4.5629164561    3.6196405870    2.6464653073
   7.2966266774    4.2113134693    1.3569770990
   5.1677087734    0.7798619244    1.5663030889
   2.3537062793    5.5579311858    0.3619259864
   1.2957247502    7.9521105120    0.3592676019
   0.7937242423    6.2746271993    3.7582158920
   2.8592035060    7.2964183620    3.9371577516
   3.5486450804    5.7889099592    2.6232367452
   0.1982336977    7.8963177501    2.7000070426
   2.9594038178    8.6046205995    1.4678989497
   0.8861861498    5.0544693935    1.3325748610
   6.7850361251    5.8327240588    0.3158482883
   5.9404046699    8.0950735015    0.3356198870
   5.2504341077    6.4828400450    3.7615581471
   7.4021835793    7.3345314506    3.7271398971
   8.0215051391    5.6003527011    2.7561886586
   4.6450336720    7.8617405018    2.8028890794
   7.4094238009    8.6875935122    1.3902410915
   5.1621360132    5.1136219394    1.5451869009
   2.3087768611    1.2969471022    4.9687322149
   1.2204156421    3.3273565556    4.7993934961
   0.7334249294    1.8599431191    8.3499119781
   2.8936142634    2.9520945605    8.2810139437
   3.4918958863    1.1641158519    7.2482626480
   0.1257044798    3.4363837873    7.1495430832
   2.9416745594    4.1592566125    5.9845850286
   0.6513169090    0.4123750630    6.0818706658
   6.8064468868    1.3337400701    4.8629443382
   5.8550054181    3.5928694151    4.9161258844
   5.2200448343    1.9586559262    8.4187741508
   7.3503442634    2.9432273984    8.2931460078
   8.0833959525    1.1076988438    7.1833147329
   4.5132143571    3.4648863937    7.3744251480
   7.6188745948    4.0655095557    6.0372071204
   5.1886168039    0.5729079584    6.0871929164
   2.2353640666    5.7254671236    4.8911360788
   1.3360526915    7.8878965620    4.8760875641
   0.6042719137    6.5699830268    8.3609560639
   2.8028814519    7.2906844299    8.3635377204
   3.6400929726    5.6705558836    7.3199066835
   0.0825015862    8.0010438050    7.0979570810
   2.8888516551    8.5705464183    6.1668888869
   0.7205140212    5.0101252037    5.9722947449
   6.7440040501    5.7442199967    4.9008981913
   5.9588525361    8.0787294535    4.9478798812
   5.1679820390    6.3620459294    8.3773680025
   7.3986815122    7.3526575565    8.1485799115
   8.1281630154    5.7497589292    7.1188888397
   4.5420714280    8.0183563769    7.4143891694
   7.3566315888    8.8190494493    5.9677411826
   5.2757638834    5.1082879731    6.1338169490
   8.4710957190    0.2513676132    8.8629741594
   1.8452628088    8.9429883865    3.1729987296
   1.9796375009    2.3550293836    2.1378229932
   8.4326080248    2.4770146478    0.8430661005
   3.9729257245    0.2142347035    8.9023120355
   6.2842683650    0.1627111179    3.2932830647
   6.2501475057    2.4692522605    1.9704550791
   4.0193980345    2.3463516872    1.0018739339
   8.5552029078    4.6781477015    8.8237180950
   1.8126055010    4.6421282581    3.2952449287
   1.8223948212    6.6429693986    2.0065666944
   8.5077452327    6.8088246514    0.8934799484
   4.0789929147    4.6623748344    8.8306060002
   6.3118056261    4.6123613348    3.0669369941
   6.3366346364    6.8992122443    2.0516790186
   4.0362751003    6.9785117481    0.9449080190
   8.7134079425    0.0940417875    4.2965441336
   1.8372962317    0.1738242499    7.8667810071
   1.8548355495    2.1708953863    6.5884927731
   8.5934058768    2.3565605378    5.6291860693
   4.0784079193    0.1408288377    4.2820520200
   6.2797462316    0.1807170976    7.8574530785
   6.2120454118    2.3866881717    6.5880649887
   4.0947859306    2.2755976663    5.6247639066
   8.5297251193    4.5369517014    4.2609079589
   1.8168235181    4.5335643751    7.7097548351
   1.9249225402    6.7534252791    6.7611368393
   8.5103531318    6.8744307547    5.3223700073
   4.2316650138    4.7447890061    4.2020461437
   6.3557934211    4.6096671846    7.8138070122
   6.3742226057    6.7698482667    6.5978489222
   4.2250430538    6.8508478395    5.5225879944
   2.7677873500    4.1104917261    0.0487949048
   0.9876954157    0.5237625855    9.1408309202
   3.7541169464    1.6835786554    4.2536232272
   8.7231660878    3.1521819830    4.0815468299
   3.2388358665    4.2477493844    3.0513052446
   0.4837883105    0.4500776550    3.0154506211
   2.1205074959    1.3925682994    3.4718522116
   1.5116063995    3.1976780189    3.3484235174
   0.4591776736    2.0586883802    2.1737120255
   3.2143571791    2.6786499552    2.3850538521
   1.5998968391    3.6489394538    1.7822939556
   2.1831985425    0.9391697723    1.8440018416
   0.9093683443    2.1139100045    0.6551922834
   2.7356379299    2.6987410951    0.7424136472
   0.0467070351    3.8804391122    1.0425834373
   3.7565588386    0.9510713530    1.1906525835
   6.9776929770    4.3947464811    9.0646471122
   5.3480996696    0.4930533895    0.0327629203
   8.2945270694    1.5370916130    4.1905852090
   4.4057059575    3.2865291392    4.1771249410
   7.6953860719    4.1152824616    2.7914671998
   4.7855682723    0.4826103717    3.0527526496
   6.6328573976    1.6243512780    3.3645145133
   6.0280063172    3.2709108384    3.4248156814
   4.8938475613    2.1465811084    2.2944041645
   7.7170373557    2.6023330751    2.1101358782
   5.9975066980    3.8162521998    1.8558861473
   6.6423285043    1.0088026345    1.8303339759
   5.5910283023    2.0911528899    0.7767744399
   7.0593679089    2.7880939270    0.6647757359
   4.3866370630    3.7623317962    1.1447653509
   8.2918587786    1.0593742693    1.1708347873
   2.6514544099    8.7023416419    0.0599888925
   1.0411026678    4.9196727365    9.0080248143
   3.8317242398    6.0672688854    4.0487271218
   8.7651731820    7.6594419628    4.1349408168
   3.3344530656    8.7209495558    2.9260392264
   0.4163155821    4.7842776912    2.9252944047
   2.1930345406    6.0641284038    3.4059563572
   1.5659035567    7.6018880010    3.4081374192
   0.3801248891    6.2887181766    2.3475357121
   3.0831043467    7.1609899329    2.3150777365
   1.5931039286    8.1983094442    1.7882679569
   2.2193457738    5.2442597632    1.8805956478
   0.9887355238    6.5395900709    0.6374062159
   2.6059951263    7.0684609921    0.7652674332
   8.9001441761    8.2569446543    1.1752114054
   3.7254859966    5.4029313399    1.1830864877
   7.1286802142    8.7307765941    9.0459609990
   5.3093567965    4.9764833505    0.0488968486
   8.1791042828    5.9312515809    4.1432890231
   4.3476030780    7.6948589852    4.3099687942
   7.8436830967    8.7322125105    2.8435413326
   4.9278853970    4.9952904797    3.0333766878
   6.5607245710    5.9933811675    3.4377683255
   5.8957434359    7.7810107565    3.4217895898
   4.8585647639    6.5703211429    2.2296080420
   7.7949344674    7.0138829950    2.2576797975
   5.9793337272    8.4259821421    1.9082901964
   6.7565355923    5.5590727006    1.8381180342
   5.5144454707    6.6003129365    0.6681683733
   7.2138750680    7.1958739810    0.7155496875
   4.4675840745    8.4026118050    1.1935294730
   8.2474660208    5.4474343299    1.0698186291
   2.6607651005    4.3545276938    4.5521750699
   1.0516575710    0.3671665175    4.7200908121
   3.7525349538    1.5935947728    8.6635031472
   8.8264439298    3.2140680380    8.6384269324
   3.1965837832    4.2574154247    7.5192052335
   0.2899862071    0.3986534864    7.6106004857
   2.2125752920    1.5967544326    7.9317224341
   1.5632842336    3.1983439519    8.0063535420
   0.3950255462    1.9284641536    6.9289518811
   3.1855752133    2.5317860370    6.8155937094
   1.4162447307    3.6717453719    6.2863838903
   2.0382665326    0.7695056690    6.4004716249
   1.0836861886    2.0966360135    5.3159223493
   2.6821558043    2.6942270308    5.3209036184
   8.8825249455    3.8001107062    5.6477774743
   3.8016967821    0.8451473601    5.7598225113
   7.0976152173    4.2437806169    4.4531070350
   5.4946875719    0.4147994168    4.6526029195
   8.1403549319    1.6409075930    8.6457352287
   4.4142039395    3.1171251189    8.7507547958
   7.7551338000    4.2214683267    7.5324573211
   4.8792061346    0.5273564381    7.5896527325
   6.5757152871    1.5520371581    8.0037044231
   6.0068542207    3.2279968035    7.9934356338
   4.9081154254    2.1431170693    6.8936541681
   7.6624551710    2.5579288501    6.8704758137
   6.1756545659    3.7923882479    6.4749962091
   6.5700663890    1.0888686801    6.2703840128
   5.4776762795    2.0798889740    5.1433143773
   7.0953059387    2.6243800215    5.1279056085
   4.4046648757    3.7127476062    5.9180953157
   8.3282866796    0.9655202050    5.8147747216
   2.6603322353    8.8390876959    4.5495390170
   0.9341448162    4.8420066420    4.4933546963
   3.6918320658    6.0598146708    8.7353470502
   8.6953509291    7.8707479082    8.6906909703
   3.2277609388    8.7076854448    7.5189591651
   0.4364733304    4.9687236640    7.5152545764
   2.0493123822    6.0392441950    8.0830862685
   1.3789014195    7.6363938767    7.9578973627
   0.5288826865    6.5259443885    6.7592459901
   3.1797221916    7.0647057977    7.0831476966
   1.4362117428    8.1732351752    6.5243778618
   2.2298335594    5.3690257282    6.4723157625
   1.0085934101    6.5154860525    5.2171762039
   2.7384829818    7.0236469622    5.4397574554
   8.7253820635    8.2917805849    5.6714913549
   3.9485538920    5.4178375156    5.6897666045
   7.2558778669    0.0709006848    4.4908734356
   5.4358646344    5.0475294238    4.6019469700
   8.2201121018    6.0895576692    8.6170891815
   4.2880109824    7.7248950156    8.7764587930
   7.5759609513    8.7659183182    7.4120112378
   4.9969433835    4.8151364937    7.6120665614
   6.6594224904    5.9577872480    7.9623583400
   5.9916613845    7.6134967311    8.0646594869
   4.8615225640    6.5854769979    6.9409080567
   7.8444923030    7.0758690037    6.8281798751
   6.1199417114    8.2014481435    6.5532400641
   6.7621136085    5.3481686930    6.3952378512
   5.5440133638    6.5741789347    5.2360983640
   7.1815729208    7.2657899796    5.2381597341
   4.3471819765    8.2197875346    5.9576492561
   8.2300639162    5.4568003452    5.5840686292
